(set-option :produce-models true)
(set-logic QF_LRA)
(set-info :notes | Strip-packing problem.|)
(declare-fun x0 () Real)
(declare-fun y0 () Real)
(declare-fun x1 () Real)
(declare-fun y1 () Real)
(declare-fun x2 () Real)
(declare-fun y2 () Real)
(declare-fun x3 () Real)
(declare-fun y3 () Real)
(declare-fun x4 () Real)
(declare-fun y4 () Real)
(declare-fun x5 () Real)
(declare-fun y5 () Real)
(declare-fun x6 () Real)
(declare-fun y6 () Real)
(declare-fun x7 () Real)
(declare-fun y7 () Real)
(declare-fun x8 () Real)
(declare-fun y8 () Real)
(declare-fun x9 () Real)
(declare-fun y9 () Real)
(declare-fun x10 () Real)
(declare-fun y10 () Real)
(declare-fun x11 () Real)
(declare-fun y11 () Real)
(declare-fun z () Real)
(declare-fun c () Real)
(assert (and (= c z) (and (>= x0 0) 
(and (>= y0 0) 
(and (>= x1 0) 
(and (>= y1 0) 
(and (>= x2 0) 
(and (>= y2 0) 
(and (>= x3 0) 
(and (>= y3 0) 
(and (>= x4 0) 
(and (>= y4 0) 
(and (>= x5 0) 
(and (>= y5 0) 
(and (>= x6 0) 
(and (>= y6 0) 
(and (>= x7 0) 
(and (>= y7 0) 
(and (>= x8 0) 
(and (>= y8 0) 
(and (>= x9 0) 
(and (>= y9 0) 
(and (>= x10 0) 
(and (>= y10 0) 
(and (>= x11 0) 
(and (>= y11 0) 
(and (>= z 0) 
(and (>= c 0) 
(and (<= (+ x0 0.0120910508) z) 
(and (<= 0.8844062386 y0) 
(and (<= y0 1.73205080757) 
(and (<= x0 (- 3.7506407362 0.0120910508)) 
(and (>= x0 0) 
(and (<= (+ x1 0.2608504307) z) 
(and (<= 0.5557926991 y1) 
(and (<= y1 1.73205080757) 
(and (<= x1 (- 3.7506407362 0.2608504307)) 
(and (>= x1 0) 
(and (<= (+ x2 0.8059045213) z) 
(and (<= 0.3291132697 y2) 
(and (<= y2 1.73205080757) 
(and (<= x2 (- 3.7506407362 0.8059045213)) 
(and (>= x2 0) 
(and (<= (+ x3 0.8486997425) z) 
(and (<= 0.2934353107 y3) 
(and (<= y3 1.73205080757) 
(and (<= x3 (- 3.7506407362 0.8486997425)) 
(and (>= x3 0) 
(and (<= (+ x4 0.9082133866) z) 
(and (<= 0.2422630191 y4) 
(and (<= y4 1.73205080757) 
(and (<= x4 (- 3.7506407362 0.9082133866)) 
(and (>= x4 0) 
(and (<= (+ x5 0.9148816043) z) 
(and (<= 0.2394440528 y5) 
(and (<= y5 1.73205080757) 
(and (<= x5 (- 3.7506407362 0.9148816043)) 
(and (>= x5 0) 
(and (<= (+ x6 0.2755506715) z) 
(and (<= 0.2340572177 y6) 
(and (<= y6 1.73205080757) 
(and (<= x6 (- 3.7506407362 0.2755506715)) 
(and (>= x6 0) 
(and (<= (+ x7 0.2876570122) z) 
(and (<= 0.1602002637 y7) 
(and (<= y7 1.73205080757) 
(and (<= x7 (- 3.7506407362 0.2876570122)) 
(and (>= x7 0) 
(and (<= (+ x8 0.558622245) z) 
(and (<= 0.1342276058 y8) 
(and (<= y8 1.73205080757) 
(and (<= x8 (- 3.7506407362 0.558622245)) 
(and (>= x8 0) 
(and (<= (+ x9 0.6953990199) z) 
(and (<= 0.046968773 y9) 
(and (<= y9 1.73205080757) 
(and (<= x9 (- 3.7506407362 0.6953990199)) 
(and (>= x9 0) 
(and (<= (+ x10 0.4831055241) z) 
(and (<= 0.0418391638 y10) 
(and (<= y10 1.73205080757) 
(and (<= x10 (- 3.7506407362 0.4831055241)) 
(and (>= x10 0) 
(and (<= (+ x11 0.817408113) z) 
(and (<= 0.0017173725 y11) 
(and (<= y11 1.73205080757) 
(and (<= x11 (- 3.7506407362 0.817408113)) 
(and (>= x11 0) 
(and (<= c 3.7506407362) 
(and (or (<= (+ x0 0.0120910508) x1) (or (<= (+ x1 0.2608504307) x0) (or (>= (- y0 0.8844062386) y1) (or (>= (- y1 0.5557926991) y0))))) 
(and (or (<= (+ x0 0.0120910508) x2) (or (<= (+ x2 0.8059045213) x0) (or (>= (- y0 0.8844062386) y2) (or (>= (- y2 0.3291132697) y0))))) 
(and (or (<= (+ x0 0.0120910508) x3) (or (<= (+ x3 0.8486997425) x0) (or (>= (- y0 0.8844062386) y3) (or (>= (- y3 0.2934353107) y0))))) 
(and (or (<= (+ x0 0.0120910508) x4) (or (<= (+ x4 0.9082133866) x0) (or (>= (- y0 0.8844062386) y4) (or (>= (- y4 0.2422630191) y0))))) 
(and (or (<= (+ x0 0.0120910508) x5) (or (<= (+ x5 0.9148816043) x0) (or (>= (- y0 0.8844062386) y5) (or (>= (- y5 0.2394440528) y0))))) 
(and (or (<= (+ x0 0.0120910508) x6) (or (<= (+ x6 0.2755506715) x0) (or (>= (- y0 0.8844062386) y6) (or (>= (- y6 0.2340572177) y0))))) 
(and (or (<= (+ x0 0.0120910508) x7) (or (<= (+ x7 0.2876570122) x0) (or (>= (- y0 0.8844062386) y7) (or (>= (- y7 0.1602002637) y0))))) 
(and (or (<= (+ x0 0.0120910508) x8) (or (<= (+ x8 0.558622245) x0) (or (>= (- y0 0.8844062386) y8) (or (>= (- y8 0.1342276058) y0))))) 
(and (or (<= (+ x0 0.0120910508) x9) (or (<= (+ x9 0.6953990199) x0) (or (>= (- y0 0.8844062386) y9) (or (>= (- y9 0.046968773) y0))))) 
(and (or (<= (+ x0 0.0120910508) x10) (or (<= (+ x10 0.4831055241) x0) (or (>= (- y0 0.8844062386) y10) (or (>= (- y10 0.0418391638) y0))))) 
(and (or (<= (+ x0 0.0120910508) x11) (or (<= (+ x11 0.817408113) x0) (or (>= (- y0 0.8844062386) y11) (or (>= (- y11 0.0017173725) y0))))) 
(and (or (<= (+ x1 0.2608504307) x2) (or (<= (+ x2 0.8059045213) x1) (or (>= (- y1 0.5557926991) y2) (or (>= (- y2 0.3291132697) y1))))) 
(and (or (<= (+ x1 0.2608504307) x3) (or (<= (+ x3 0.8486997425) x1) (or (>= (- y1 0.5557926991) y3) (or (>= (- y3 0.2934353107) y1))))) 
(and (or (<= (+ x1 0.2608504307) x4) (or (<= (+ x4 0.9082133866) x1) (or (>= (- y1 0.5557926991) y4) (or (>= (- y4 0.2422630191) y1))))) 
(and (or (<= (+ x1 0.2608504307) x5) (or (<= (+ x5 0.9148816043) x1) (or (>= (- y1 0.5557926991) y5) (or (>= (- y5 0.2394440528) y1))))) 
(and (or (<= (+ x1 0.2608504307) x6) (or (<= (+ x6 0.2755506715) x1) (or (>= (- y1 0.5557926991) y6) (or (>= (- y6 0.2340572177) y1))))) 
(and (or (<= (+ x1 0.2608504307) x7) (or (<= (+ x7 0.2876570122) x1) (or (>= (- y1 0.5557926991) y7) (or (>= (- y7 0.1602002637) y1))))) 
(and (or (<= (+ x1 0.2608504307) x8) (or (<= (+ x8 0.558622245) x1) (or (>= (- y1 0.5557926991) y8) (or (>= (- y8 0.1342276058) y1))))) 
(and (or (<= (+ x1 0.2608504307) x9) (or (<= (+ x9 0.6953990199) x1) (or (>= (- y1 0.5557926991) y9) (or (>= (- y9 0.046968773) y1))))) 
(and (or (<= (+ x1 0.2608504307) x10) (or (<= (+ x10 0.4831055241) x1) (or (>= (- y1 0.5557926991) y10) (or (>= (- y10 0.0418391638) y1))))) 
(and (or (<= (+ x1 0.2608504307) x11) (or (<= (+ x11 0.817408113) x1) (or (>= (- y1 0.5557926991) y11) (or (>= (- y11 0.0017173725) y1))))) 
(and (or (<= (+ x2 0.8059045213) x3) (or (<= (+ x3 0.8486997425) x2) (or (>= (- y2 0.3291132697) y3) (or (>= (- y3 0.2934353107) y2))))) 
(and (or (<= (+ x2 0.8059045213) x4) (or (<= (+ x4 0.9082133866) x2) (or (>= (- y2 0.3291132697) y4) (or (>= (- y4 0.2422630191) y2))))) 
(and (or (<= (+ x2 0.8059045213) x5) (or (<= (+ x5 0.9148816043) x2) (or (>= (- y2 0.3291132697) y5) (or (>= (- y5 0.2394440528) y2))))) 
(and (or (<= (+ x2 0.8059045213) x6) (or (<= (+ x6 0.2755506715) x2) (or (>= (- y2 0.3291132697) y6) (or (>= (- y6 0.2340572177) y2))))) 
(and (or (<= (+ x2 0.8059045213) x7) (or (<= (+ x7 0.2876570122) x2) (or (>= (- y2 0.3291132697) y7) (or (>= (- y7 0.1602002637) y2))))) 
(and (or (<= (+ x2 0.8059045213) x8) (or (<= (+ x8 0.558622245) x2) (or (>= (- y2 0.3291132697) y8) (or (>= (- y8 0.1342276058) y2))))) 
(and (or (<= (+ x2 0.8059045213) x9) (or (<= (+ x9 0.6953990199) x2) (or (>= (- y2 0.3291132697) y9) (or (>= (- y9 0.046968773) y2))))) 
(and (or (<= (+ x2 0.8059045213) x10) (or (<= (+ x10 0.4831055241) x2) (or (>= (- y2 0.3291132697) y10) (or (>= (- y10 0.0418391638) y2))))) 
(and (or (<= (+ x2 0.8059045213) x11) (or (<= (+ x11 0.817408113) x2) (or (>= (- y2 0.3291132697) y11) (or (>= (- y11 0.0017173725) y2))))) 
(and (or (<= (+ x3 0.8486997425) x4) (or (<= (+ x4 0.9082133866) x3) (or (>= (- y3 0.2934353107) y4) (or (>= (- y4 0.2422630191) y3))))) 
(and (or (<= (+ x3 0.8486997425) x5) (or (<= (+ x5 0.9148816043) x3) (or (>= (- y3 0.2934353107) y5) (or (>= (- y5 0.2394440528) y3))))) 
(and (or (<= (+ x3 0.8486997425) x6) (or (<= (+ x6 0.2755506715) x3) (or (>= (- y3 0.2934353107) y6) (or (>= (- y6 0.2340572177) y3))))) 
(and (or (<= (+ x3 0.8486997425) x7) (or (<= (+ x7 0.2876570122) x3) (or (>= (- y3 0.2934353107) y7) (or (>= (- y7 0.1602002637) y3))))) 
(and (or (<= (+ x3 0.8486997425) x8) (or (<= (+ x8 0.558622245) x3) (or (>= (- y3 0.2934353107) y8) (or (>= (- y8 0.1342276058) y3))))) 
(and (or (<= (+ x3 0.8486997425) x9) (or (<= (+ x9 0.6953990199) x3) (or (>= (- y3 0.2934353107) y9) (or (>= (- y9 0.046968773) y3))))) 
(and (or (<= (+ x3 0.8486997425) x10) (or (<= (+ x10 0.4831055241) x3) (or (>= (- y3 0.2934353107) y10) (or (>= (- y10 0.0418391638) y3))))) 
(and (or (<= (+ x3 0.8486997425) x11) (or (<= (+ x11 0.817408113) x3) (or (>= (- y3 0.2934353107) y11) (or (>= (- y11 0.0017173725) y3))))) 
(and (or (<= (+ x4 0.9082133866) x5) (or (<= (+ x5 0.9148816043) x4) (or (>= (- y4 0.2422630191) y5) (or (>= (- y5 0.2394440528) y4))))) 
(and (or (<= (+ x4 0.9082133866) x6) (or (<= (+ x6 0.2755506715) x4) (or (>= (- y4 0.2422630191) y6) (or (>= (- y6 0.2340572177) y4))))) 
(and (or (<= (+ x4 0.9082133866) x7) (or (<= (+ x7 0.2876570122) x4) (or (>= (- y4 0.2422630191) y7) (or (>= (- y7 0.1602002637) y4))))) 
(and (or (<= (+ x4 0.9082133866) x8) (or (<= (+ x8 0.558622245) x4) (or (>= (- y4 0.2422630191) y8) (or (>= (- y8 0.1342276058) y4))))) 
(and (or (<= (+ x4 0.9082133866) x9) (or (<= (+ x9 0.6953990199) x4) (or (>= (- y4 0.2422630191) y9) (or (>= (- y9 0.046968773) y4))))) 
(and (or (<= (+ x4 0.9082133866) x10) (or (<= (+ x10 0.4831055241) x4) (or (>= (- y4 0.2422630191) y10) (or (>= (- y10 0.0418391638) y4))))) 
(and (or (<= (+ x4 0.9082133866) x11) (or (<= (+ x11 0.817408113) x4) (or (>= (- y4 0.2422630191) y11) (or (>= (- y11 0.0017173725) y4))))) 
(and (or (<= (+ x5 0.9148816043) x6) (or (<= (+ x6 0.2755506715) x5) (or (>= (- y5 0.2394440528) y6) (or (>= (- y6 0.2340572177) y5))))) 
(and (or (<= (+ x5 0.9148816043) x7) (or (<= (+ x7 0.2876570122) x5) (or (>= (- y5 0.2394440528) y7) (or (>= (- y7 0.1602002637) y5))))) 
(and (or (<= (+ x5 0.9148816043) x8) (or (<= (+ x8 0.558622245) x5) (or (>= (- y5 0.2394440528) y8) (or (>= (- y8 0.1342276058) y5))))) 
(and (or (<= (+ x5 0.9148816043) x9) (or (<= (+ x9 0.6953990199) x5) (or (>= (- y5 0.2394440528) y9) (or (>= (- y9 0.046968773) y5))))) 
(and (or (<= (+ x5 0.9148816043) x10) (or (<= (+ x10 0.4831055241) x5) (or (>= (- y5 0.2394440528) y10) (or (>= (- y10 0.0418391638) y5))))) 
(and (or (<= (+ x5 0.9148816043) x11) (or (<= (+ x11 0.817408113) x5) (or (>= (- y5 0.2394440528) y11) (or (>= (- y11 0.0017173725) y5))))) 
(and (or (<= (+ x6 0.2755506715) x7) (or (<= (+ x7 0.2876570122) x6) (or (>= (- y6 0.2340572177) y7) (or (>= (- y7 0.1602002637) y6))))) 
(and (or (<= (+ x6 0.2755506715) x8) (or (<= (+ x8 0.558622245) x6) (or (>= (- y6 0.2340572177) y8) (or (>= (- y8 0.1342276058) y6))))) 
(and (or (<= (+ x6 0.2755506715) x9) (or (<= (+ x9 0.6953990199) x6) (or (>= (- y6 0.2340572177) y9) (or (>= (- y9 0.046968773) y6))))) 
(and (or (<= (+ x6 0.2755506715) x10) (or (<= (+ x10 0.4831055241) x6) (or (>= (- y6 0.2340572177) y10) (or (>= (- y10 0.0418391638) y6))))) 
(and (or (<= (+ x6 0.2755506715) x11) (or (<= (+ x11 0.817408113) x6) (or (>= (- y6 0.2340572177) y11) (or (>= (- y11 0.0017173725) y6))))) 
(and (or (<= (+ x7 0.2876570122) x8) (or (<= (+ x8 0.558622245) x7) (or (>= (- y7 0.1602002637) y8) (or (>= (- y8 0.1342276058) y7))))) 
(and (or (<= (+ x7 0.2876570122) x9) (or (<= (+ x9 0.6953990199) x7) (or (>= (- y7 0.1602002637) y9) (or (>= (- y9 0.046968773) y7))))) 
(and (or (<= (+ x7 0.2876570122) x10) (or (<= (+ x10 0.4831055241) x7) (or (>= (- y7 0.1602002637) y10) (or (>= (- y10 0.0418391638) y7))))) 
(and (or (<= (+ x7 0.2876570122) x11) (or (<= (+ x11 0.817408113) x7) (or (>= (- y7 0.1602002637) y11) (or (>= (- y11 0.0017173725) y7))))) 
(and (or (<= (+ x8 0.558622245) x9) (or (<= (+ x9 0.6953990199) x8) (or (>= (- y8 0.1342276058) y9) (or (>= (- y9 0.046968773) y8))))) 
(and (or (<= (+ x8 0.558622245) x10) (or (<= (+ x10 0.4831055241) x8) (or (>= (- y8 0.1342276058) y10) (or (>= (- y10 0.0418391638) y8))))) 
(and (or (<= (+ x8 0.558622245) x11) (or (<= (+ x11 0.817408113) x8) (or (>= (- y8 0.1342276058) y11) (or (>= (- y11 0.0017173725) y8))))) 
(and (or (<= (+ x9 0.6953990199) x10) (or (<= (+ x10 0.4831055241) x9) (or (>= (- y9 0.046968773) y10) (or (>= (- y10 0.0418391638) y9))))) 
(and (or (<= (+ x9 0.6953990199) x11) (or (<= (+ x11 0.817408113) x9) (or (>= (- y9 0.046968773) y11) (or (>= (- y11 0.0017173725) y9))))) 
(and (or (<= (+ x10 0.4831055241) x11) (or (<= (+ x11 0.817408113) x10) (or (>= (- y10 0.0418391638) y11) (or (>= (- y11 0.0017173725) y10))))) )))))))))))))))))))))))))))))))))))))))))))))))))))))))))))))))))))))))))))))))))))))))))))))))))))))))))))))))))))))))))))))))))))))))))))))))))))))))))))
(minimize c)
(check-sat)
(get-objectives)
(exit)
